(set-logic QF_UF)
(declare-fun A0 () Bool)
(declare-fun A1 () Bool)
(declare-fun A2 () Bool)
(declare-fun A3 () Bool)
(declare-fun A4 () Bool)
(declare-fun A5 () Bool)
(declare-fun A6 () Bool)
(declare-fun A7 () Bool)
(declare-fun A8 () Bool)
(declare-fun A9 () Bool)
(declare-fun A10 () Bool)
(declare-fun A11 () Bool)
(declare-fun A12 () Bool)
(declare-fun A13 () Bool)
(declare-fun A14 () Bool)
(declare-fun A15 () Bool)
(declare-fun A16 () Bool)
(declare-fun A17 () Bool)
(declare-fun A18 () Bool)
(declare-fun A19 () Bool)
(declare-fun A20 () Bool)
(declare-fun A21 () Bool)
(declare-fun A22 () Bool)
(declare-fun A23 () Bool)
(declare-fun A24 () Bool)
(assert (let ((.def_0 (not A20))) (let ((.def_1 (or .def_0 A20))) (let ((.def_2 (not A11))) (let ((.def_3 (and A9 .def_2))) (let ((.def_4 (not .def_3))) (let ((.def_5 (= .def_4 .def_1))) (let ((.def_6 (not A8))) (let ((.def_7 (and .def_6 .def_0))) (let ((.def_8 (not .def_7))) (let ((.def_9 (not A4))) (let ((.def_10 (or .def_9 .def_6))) (let ((.def_11 (or .def_10 .def_8))) (let ((.def_12 (not .def_11))) (let ((.def_13 (and .def_12 .def_5))) (let ((.def_14 (not A6))) (let ((.def_15 (or A12 .def_14))) (let ((.def_16 (not .def_15))) (let ((.def_17 (or .def_2 A12))) (let ((.def_18 (not .def_17))) (let ((.def_19 (or .def_18 .def_16))) (let ((.def_20 (not .def_19))) (let ((.def_21 (or A7 .def_2))) (let ((.def_22 (not .def_21))) (let ((.def_23 (not A10))) (let ((.def_24 (not A3))) (let ((.def_25 (or .def_24 .def_23))) (let ((.def_26 (and .def_25 .def_22))) (let ((.def_27 (not .def_26))) (let ((.def_28 (or .def_27 .def_20))) (let ((.def_29 (not .def_28))) (let ((.def_30 (= .def_29 .def_13))) (let ((.def_31 (not .def_30))) (let ((.def_32 (and A17 .def_23))) (let ((.def_33 (or .def_0 A2))) (let ((.def_34 (= .def_33 .def_32))) (let ((.def_35 (not A21))) (let ((.def_36 (and .def_35 A8))) (let ((.def_37 (not A9))) (let ((.def_38 (and .def_37 A14))) (let ((.def_39 (not .def_38))) (let ((.def_40 (and .def_39 .def_36))) (let ((.def_41 (not .def_40))) (let ((.def_42 (and .def_41 .def_34))) (let ((.def_43 (not .def_42))) (let ((.def_44 (and A24 A24))) (let ((.def_45 (not .def_44))) (let ((.def_46 (or A4 A14))) (let ((.def_47 (not .def_46))) (let ((.def_48 (and .def_47 .def_45))) (let ((.def_49 (not .def_48))) (let ((.def_50 (and A1 .def_24))) (let ((.def_51 (not A15))) (let ((.def_52 (= A14 .def_51))) (let ((.def_53 (not .def_52))) (let ((.def_54 (or .def_53 .def_50))) (let ((.def_55 (or .def_54 .def_49))) (let ((.def_56 (not .def_55))) (let ((.def_57 (or .def_56 .def_43))) (let ((.def_58 (not .def_57))) (let ((.def_59 (and .def_58 .def_31))) (let ((.def_60 (and A8 A19))) (let ((.def_61 (or A9 A18))) (let ((.def_62 (and .def_61 .def_60))) (let ((.def_63 (not .def_62))) (let ((.def_64 (or .def_0 A9))) (let ((.def_65 (not .def_64))) (let ((.def_66 (not A13))) (let ((.def_67 (not A19))) (let ((.def_68 (or .def_67 .def_66))) (let ((.def_69 (and .def_68 .def_65))) (let ((.def_70 (not .def_69))) (let ((.def_71 (or .def_70 .def_63))) (let ((.def_72 (or A7 A23))) (let ((.def_73 (and .def_37 .def_14))) (let ((.def_74 (or .def_73 .def_72))) (let ((.def_75 (not A14))) (let ((.def_76 (or A16 .def_75))) (let ((.def_77 (not .def_76))) (let ((.def_78 (and A17 .def_2))) (let ((.def_79 (or .def_78 .def_77))) (let ((.def_80 (or .def_79 .def_74))) (let ((.def_81 (not .def_80))) (let ((.def_82 (= .def_81 .def_71))) (let ((.def_83 (not .def_82))) (let ((.def_84 (and A5 .def_37))) (let ((.def_85 (not .def_84))) (let ((.def_86 (and A24 .def_67))) (let ((.def_87 (not .def_86))) (let ((.def_88 (and .def_87 .def_85))) (let ((.def_89 (not .def_88))) (let ((.def_90 (and A18 .def_14))) (let ((.def_91 (not A17))) (let ((.def_92 (= .def_91 A13))) (let ((.def_93 (or .def_92 .def_90))) (let ((.def_94 (not .def_93))) (let ((.def_95 (or .def_94 .def_89))) (let ((.def_96 (not .def_95))) (let ((.def_97 (not A18))) (let ((.def_98 (and .def_0 .def_97))) (let ((.def_99 (not A0))) (let ((.def_100 (or .def_99 A8))) (let ((.def_101 (not .def_100))) (let ((.def_102 (and .def_101 .def_98))) (let ((.def_103 (= A2 .def_97))) (let ((.def_104 (not A5))) (let ((.def_105 (or .def_51 .def_104))) (let ((.def_106 (not .def_105))) (let ((.def_107 (and .def_106 .def_103))) (let ((.def_108 (not .def_107))) (let ((.def_109 (and .def_108 .def_102))) (let ((.def_110 (not .def_109))) (let ((.def_111 (and .def_110 .def_96))) (let ((.def_112 (not .def_111))) (let ((.def_113 (or .def_112 .def_83))) (let ((.def_114 (not .def_113))) (let ((.def_115 (or .def_114 .def_59))) (let ((.def_116 (and .def_97 A8))) (let ((.def_117 (not .def_116))) (let ((.def_118 (and .def_66 .def_104))) (let ((.def_119 (or .def_118 .def_117))) (let ((.def_120 (or A17 .def_99))) (let ((.def_121 (not A1))) (let ((.def_122 (or .def_121 .def_104))) (let ((.def_123 (not .def_122))) (let ((.def_124 (or .def_123 .def_120))) (let ((.def_125 (not .def_124))) (let ((.def_126 (or .def_125 .def_119))) (let ((.def_127 (or A12 A2))) (let ((.def_128 (or A6 A17))) (let ((.def_129 (and .def_128 .def_127))) (let ((.def_130 (not .def_129))) (let ((.def_131 (or A6 .def_75))) (let ((.def_132 (not A24))) (let ((.def_133 (not A22))) (let ((.def_134 (and .def_133 .def_132))) (let ((.def_135 (not .def_134))) (let ((.def_136 (or .def_135 .def_131))) (let ((.def_137 (= .def_136 .def_130))) (let ((.def_138 (not .def_137))) (let ((.def_139 (and .def_138 .def_126))) (let ((.def_140 (and .def_24 A16))) (let ((.def_141 (not .def_140))) (let ((.def_142 (and .def_67 .def_14))) (let ((.def_143 (not .def_142))) (let ((.def_144 (= .def_143 .def_141))) (let ((.def_145 (and .def_67 A16))) (let ((.def_146 (not A12))) (let ((.def_147 (or A6 .def_146))) (let ((.def_148 (= .def_147 .def_145))) (let ((.def_149 (and .def_148 .def_144))) (let ((.def_150 (not .def_149))) (let ((.def_151 (or .def_67 A2))) (let ((.def_152 (not .def_151))) (let ((.def_153 (and A0 A6))) (let ((.def_154 (or .def_153 .def_152))) (let ((.def_155 (not .def_154))) (let ((.def_156 (or .def_99 A21))) (let ((.def_157 (not .def_156))) (let ((.def_158 (and .def_14 A7))) (let ((.def_159 (or .def_158 .def_157))) (let ((.def_160 (not .def_159))) (let ((.def_161 (or .def_160 .def_155))) (let ((.def_162 (= .def_161 .def_150))) (let ((.def_163 (and .def_162 .def_139))) (let ((.def_164 (not .def_163))) (let ((.def_165 (and A24 A11))) (let ((.def_166 (not .def_165))) (let ((.def_167 (or A21 A7))) (let ((.def_168 (not .def_167))) (let ((.def_169 (and .def_168 .def_166))) (let ((.def_170 (not .def_169))) (let ((.def_171 (or A8 .def_66))) (let ((.def_172 (not .def_171))) (let ((.def_173 (or .def_97 .def_37))) (let ((.def_174 (and .def_173 .def_172))) (let ((.def_175 (and .def_174 .def_170))) (let ((.def_176 (not .def_175))) (let ((.def_177 (= A12 A15))) (let ((.def_178 (not .def_177))) (let ((.def_179 (or .def_51 A23))) (let ((.def_180 (not .def_179))) (let ((.def_181 (and .def_180 .def_178))) (let ((.def_182 (not .def_181))) (let ((.def_183 (or A1 A14))) (let ((.def_184 (or A0 A15))) (let ((.def_185 (or .def_184 .def_183))) (let ((.def_186 (not .def_185))) (let ((.def_187 (and .def_186 .def_182))) (let ((.def_188 (and .def_187 .def_176))) (let ((.def_189 (not .def_188))) (let ((.def_190 (or A17 A3))) (let ((.def_191 (= A22 A16))) (let ((.def_192 (not .def_191))) (let ((.def_193 (or .def_192 .def_190))) (let ((.def_194 (not .def_193))) (let ((.def_195 (and A6 A18))) (let ((.def_196 (= A23 .def_37))) (let ((.def_197 (not .def_196))) (let ((.def_198 (or .def_197 .def_195))) (let ((.def_199 (or .def_198 .def_194))) (let ((.def_200 (not .def_199))) (let ((.def_201 (= A3 A13))) (let ((.def_202 (not .def_201))) (let ((.def_203 (= .def_66 .def_2))) (let ((.def_204 (or .def_203 .def_202))) (let ((.def_205 (not .def_204))) (let ((.def_206 (not A2))) (let ((.def_207 (and .def_206 .def_97))) (let ((.def_208 (not .def_207))) (let ((.def_209 (or .def_75 A12))) (let ((.def_210 (not .def_209))) (let ((.def_211 (and .def_210 .def_208))) (let ((.def_212 (and .def_211 .def_205))) (let ((.def_213 (not .def_212))) (let ((.def_214 (and .def_213 .def_200))) (let ((.def_215 (= .def_214 .def_189))) (let ((.def_216 (not .def_215))) (let ((.def_217 (= .def_216 .def_164))) (let ((.def_218 (or .def_217 .def_115))) (let ((.def_219 (not .def_218))) (let ((.def_220 (and A14 A21))) (let ((.def_221 (not .def_220))) (let ((.def_222 (or A12 .def_23))) (let ((.def_223 (and .def_222 .def_221))) (let ((.def_224 (not .def_223))) (let ((.def_225 (and A14 A12))) (let ((.def_226 (and A6 .def_99))) (let ((.def_227 (not .def_226))) (let ((.def_228 (and .def_227 .def_225))) (let ((.def_229 (and .def_228 .def_224))) (let ((.def_230 (not .def_229))) (let ((.def_231 (or .def_99 .def_133))) (let ((.def_232 (not .def_231))) (let ((.def_233 (and A4 A16))) (let ((.def_234 (not .def_233))) (let ((.def_235 (and .def_234 .def_232))) (let ((.def_236 (not .def_235))) (let ((.def_237 (or A23 .def_99))) (let ((.def_238 (not .def_237))) (let ((.def_239 (not A7))) (let ((.def_240 (or A6 .def_239))) (let ((.def_241 (not .def_240))) (let ((.def_242 (and .def_241 .def_238))) (let ((.def_243 (or .def_242 .def_236))) (let ((.def_244 (and .def_243 .def_230))) (let ((.def_245 (and A1 .def_206))) (let ((.def_246 (or A22 .def_0))) (let ((.def_247 (not .def_246))) (let ((.def_248 (and .def_247 .def_245))) (let ((.def_249 (not .def_248))) (let ((.def_250 (= .def_37 A4))) (let ((.def_251 (not .def_250))) (let ((.def_252 (and A1 .def_37))) (let ((.def_253 (or .def_252 .def_251))) (let ((.def_254 (not .def_253))) (let ((.def_255 (and .def_254 .def_249))) (let ((.def_256 (and .def_0 .def_14))) (let ((.def_257 (not .def_256))) (let ((.def_258 (and .def_53 .def_257))) (let ((.def_259 (not .def_258))) (let ((.def_260 (and .def_35 A15))) (let ((.def_261 (not .def_260))) (let ((.def_262 (or A18 A10))) (let ((.def_263 (not .def_262))) (let ((.def_264 (and .def_263 .def_261))) (let ((.def_265 (not .def_264))) (let ((.def_266 (and .def_265 .def_259))) (let ((.def_267 (not .def_266))) (let ((.def_268 (= .def_267 .def_255))) (let ((.def_269 (and .def_268 .def_244))) (let ((.def_270 (not .def_269))) (let ((.def_271 (not A16))) (let ((.def_272 (and A5 .def_271))) (let ((.def_273 (not .def_272))) (let ((.def_274 (and A3 A18))) (let ((.def_275 (or .def_274 .def_273))) (let ((.def_276 (not .def_275))) (let ((.def_277 (or .def_91 A14))) (let ((.def_278 (not .def_277))) (let ((.def_279 (or .def_75 .def_35))) (let ((.def_280 (or .def_279 .def_278))) (let ((.def_281 (not .def_280))) (let ((.def_282 (= .def_281 .def_276))) (let ((.def_283 (= .def_75 A9))) (let ((.def_284 (not .def_283))) (let ((.def_285 (and A13 .def_37))) (let ((.def_286 (and .def_285 .def_284))) (let ((.def_287 (or .def_6 .def_239))) (let ((.def_288 (not .def_287))) (let ((.def_289 (or A6 .def_132))) (let ((.def_290 (and .def_289 .def_288))) (let ((.def_291 (not .def_290))) (let ((.def_292 (and .def_291 .def_286))) (let ((.def_293 (and .def_292 .def_282))) (let ((.def_294 (and .def_14 A24))) (let ((.def_295 (not .def_294))) (let ((.def_296 (or .def_37 A0))) (let ((.def_297 (= .def_296 .def_295))) (let ((.def_298 (= A6 A4))) (let ((.def_299 (not .def_298))) (let ((.def_300 (or .def_24 .def_24))) (let ((.def_301 (not .def_300))) (let ((.def_302 (and .def_301 .def_299))) (let ((.def_303 (not .def_302))) (let ((.def_304 (= .def_303 .def_297))) (let ((.def_305 (not .def_304))) (let ((.def_306 (or .def_2 .def_239))) (let ((.def_307 (or .def_9 A0))) (let ((.def_308 (not .def_307))) (let ((.def_309 (and .def_308 .def_306))) (let ((.def_310 (and A10 A4))) (let ((.def_311 (not .def_310))) (let ((.def_312 (= .def_99 A4))) (let ((.def_313 (= .def_312 .def_311))) (let ((.def_314 (and .def_313 .def_309))) (let ((.def_315 (not .def_314))) (let ((.def_316 (= .def_315 .def_305))) (let ((.def_317 (not .def_316))) (let ((.def_318 (or .def_317 .def_293))) (let ((.def_319 (not .def_318))) (let ((.def_320 (or .def_319 .def_270))) (let ((.def_321 (not .def_320))) (let ((.def_322 (= .def_271 .def_67))) (let ((.def_323 (not .def_322))) (let ((.def_324 (and .def_271 A23))) (let ((.def_325 (not .def_324))) (let ((.def_326 (and .def_325 .def_323))) (let ((.def_327 (or A12 .def_9))) (let ((.def_328 (or A14 A19))) (let ((.def_329 (and .def_328 .def_327))) (let ((.def_330 (or .def_329 .def_326))) (let ((.def_331 (= .def_37 .def_35))) (let ((.def_332 (not .def_331))) (let ((.def_333 (= .def_51 A21))) (let ((.def_334 (and .def_333 .def_332))) (let ((.def_335 (= .def_91 .def_14))) (let ((.def_336 (and A15 A21))) (let ((.def_337 (not .def_336))) (let ((.def_338 (and .def_337 .def_335))) (let ((.def_339 (= .def_338 .def_334))) (let ((.def_340 (and .def_339 .def_330))) (let ((.def_341 (not .def_340))) (let ((.def_342 (or .def_133 A6))) (let ((.def_343 (not .def_342))) (let ((.def_344 (and .def_206 .def_91))) (let ((.def_345 (or .def_344 .def_343))) (let ((.def_346 (and .def_23 A18))) (let ((.def_347 (= A10 .def_14))) (let ((.def_348 (= .def_347 .def_346))) (let ((.def_349 (not .def_348))) (let ((.def_350 (or .def_349 .def_345))) (let ((.def_351 (and .def_14 A14))) (let ((.def_352 (not .def_351))) (let ((.def_353 (or A15 .def_66))) (let ((.def_354 (not .def_353))) (let ((.def_355 (or .def_354 .def_352))) (let ((.def_356 (and A1 A8))) (let ((.def_357 (= .def_35 A14))) (let ((.def_358 (or .def_357 .def_356))) (let ((.def_359 (not .def_358))) (let ((.def_360 (or .def_359 .def_355))) (let ((.def_361 (or .def_360 .def_350))) (let ((.def_362 (or .def_361 .def_341))) (let ((.def_363 (and A21 A22))) (let ((.def_364 (not .def_363))) (let ((.def_365 (and A6 .def_35))) (let ((.def_366 (not .def_365))) (let ((.def_367 (= .def_366 .def_364))) (let ((.def_368 (not .def_367))) (let ((.def_369 (or .def_37 A21))) (let ((.def_370 (not .def_369))) (let ((.def_371 (and .def_67 .def_67))) (let ((.def_372 (or .def_371 .def_370))) (let ((.def_373 (not .def_372))) (let ((.def_374 (and .def_373 .def_368))) (let ((.def_375 (and .def_104 A7))) (let ((.def_376 (or .def_24 .def_91))) (let ((.def_377 (not .def_376))) (let ((.def_378 (or .def_377 .def_375))) (let ((.def_379 (or .def_146 .def_23))) (let ((.def_380 (and .def_173 .def_379))) (let ((.def_381 (and .def_380 .def_378))) (let ((.def_382 (not .def_381))) (let ((.def_383 (or .def_382 .def_374))) (let ((.def_384 (or A17 A23))) (let ((.def_385 (not .def_384))) (let ((.def_386 (or A16 .def_132))) (let ((.def_387 (or .def_386 .def_385))) (let ((.def_388 (not .def_387))) (let ((.def_389 (and A0 A16))) (let ((.def_390 (not .def_389))) (let ((.def_391 (and .def_9 .def_132))) (let ((.def_392 (or .def_391 .def_390))) (let ((.def_393 (or .def_392 .def_388))) (let ((.def_394 (or A24 .def_75))) (let ((.def_395 (not .def_394))) (let ((.def_396 (= .def_395 .def_241))) (let ((.def_397 (or .def_35 A21))) (let ((.def_398 (or A14 A8))) (let ((.def_399 (and .def_398 .def_397))) (let ((.def_400 (not .def_399))) (let ((.def_401 (or .def_400 .def_396))) (let ((.def_402 (or .def_401 .def_393))) (let ((.def_403 (or .def_402 .def_383))) (let ((.def_404 (not .def_403))) (let ((.def_405 (or .def_404 .def_362))) (let ((.def_406 (not .def_405))) (let ((.def_407 (= .def_406 .def_321))) (let ((.def_408 (not .def_407))) (let ((.def_409 (and .def_408 .def_219))) (let ((.def_410 (not .def_409))) .def_410))))))))))))))))))))))))))))))))))))))))))))))))))))))))))))))))))))))))))))))))))))))))))))))))))))))))))))))))))))))))))))))))))))))))))))))))))))))))))))))))))))))))))))))))))))))))))))))))))))))))))))))))))))))))))))))))))))))))))))))))))))))))))))))))))))))))))))))))))))))))))))))))))))))))))))))))))))))))))))))))))))))))))))))))))))))))))))))))))))))))))))))))))))))))))))))))))))))))))))))))))))))))))))
(check-sat)
